1047812137509021298502,13,1,2,013,10,1,2,012,6,1,2,07,2,1,2,010,1,1,2,014,15,1,2,015,14,1,2,02,14,1,2,05,6,1,2,015,11,1,2,08,15,1,2,010,3,1,2,06,11,1,2,06,13,1,2,04,8,1,2,012,8,1,2,011,1,1,2,09,10,1,2,06,8,1,2,014,11,1,2,04,1,1,2,09,1,1,2,011,8,1,2,06,1,1,2,014,13,1,2,07,4,1,2,013,4,1,2,04,4,1,2,013,4,1,2,014,14,1,2,012,11,1,2,02,6,1,2,013,4,1,2,04,11,1,2,03,3,1,2,05,1,1,2,07,12,1,2,011,13,1,2,010,10,1,2,014,15,1,2,09,7,1,2,05,13,1,2,04,10,1,2,05,1,1,2,010,15,1,2,06,5,1,2,08,2,1,2,04,6,1,2,014,8,1,2,012,8,1,2,0